NAME : swiss42-R-1-0-a.0329_2222.tour
COMMENT : Found by CTSP-d POMO Model Sun Mar 29 22:22:46 2026
TYPE : TOUR
DIMENSION : 42
TOUR_SECTION
7
1
2
4
3
5
28
29
30
31
33
32
18
37
36
21
34
35
39
23
40
25
22
41
10
9
24
42
11
26
12
13
19
27
6
14
20
17
15
16
38
8
-1
EOF
